
Gurobi 11.0.0 (win64) logging started Sat Jun 15 09:51:13 2024

Set parameter LogFile to value "./GurobiLog/stage_2_iter_9.log"
Gurobi Optimizer version 11.0.0 build v11.0.0rc2 (win64 - Windows 10.0 (18363.2))

CPU model: Intel(R) Core(TM) i7-8700 CPU @ 3.20GHz, instruction set [SSE2|AVX|AVX2]
Thread count: 6 physical cores, 12 logical processors, using up to 1 threads

Optimize a model with 1490 rows, 20459 columns and 68004 nonzeros
Coefficient statistics:
  Matrix range     [1e-02, 7e+03]
  Objective range  [1e-01, 2e+05]
  Bounds range     [4e-01, 5e+05]
  RHS range        [1e+00, 6e+04]
LP warm-start: use basis
Iteration    Objective       Primal Inf.    Dual Inf.      Time
       0    1.3008047e+04   2.944155e+03   0.000000e+00      0s
     158    2.1907498e+04   0.000000e+00   0.000000e+00      0s

Solved in 158 iterations and 0.01 seconds (0.00 work units)
Optimal objective  2.190749783e+04

Gurobi 11.0.0 (win64) logging started Sat Jun 15 10:49:42 2024

Set parameter LogFile to value "./GurobiLog/stage_2_iter_9.log"
Gurobi Optimizer version 11.0.0 build v11.0.0rc2 (win64 - Windows 10.0 (18363.2))

CPU model: Intel(R) Core(TM) i7-8700 CPU @ 3.20GHz, instruction set [SSE2|AVX|AVX2]
Thread count: 6 physical cores, 12 logical processors, using up to 1 threads

Optimize a model with 1490 rows, 20459 columns and 71386 nonzeros
Coefficient statistics:
  Matrix range     [3e-03, 1e+04]
  Objective range  [1e-01, 2e+05]
  Bounds range     [3e-01, 6e+05]
  RHS range        [1e+00, 5e+04]
LP warm-start: use basis
Iteration    Objective       Primal Inf.    Dual Inf.      Time
       0    5.7553754e+03   2.049223e+04   0.000000e+00      0s
     298    2.0780387e+04   0.000000e+00   0.000000e+00      0s

Solved in 298 iterations and 0.02 seconds (0.01 work units)
Optimal objective  2.078038695e+04
